\* MDP solver *\
Minimize
Sum_of_V_functions: Value_for_0 + Value_for_1 + Value_for_2 + Value_for_3
Subject To
_C1: 0.897919524463 Value_for_0 - 0.205075445816 Value_for_1
 - 0.099451303155 Value_for_2 - 0.0933927754915 Value_for_3 >= 1009.71819616
_C10: Value_for_2 >= 0
_C11: Value_for_2 >= 0
_C12: Value_for_2 >= 0
_C13: Value_for_3 >= 0
_C14: Value_for_3 >= 0
_C15: Value_for_3 >= 0
_C16: Value_for_3 >= 0
_C2: 0.745670995671 Value_for_0 - 0.146103896104 Value_for_1
 - 0.0491822991823 Value_for_2 - 0.0503848003848 Value_for_3 >= 730.533703704
_C3: 0.956094049904 Value_for_0 - 0.150671785029 Value_for_1
 - 0.254078694818 Value_for_2 - 0.0513435700576 Value_for_3 >= 1773.61543186
_C4: 0.846626452189 Value_for_0 - 0.101429848079 Value_for_1
 - 0.148123324397 Value_for_2 - 0.097073279714 Value_for_3 >= 951.313512064
_C5: Value_for_1 >= 0
_C6: Value_for_1 >= 0
_C7: Value_for_1 >= 0
_C8: Value_for_1 >= 0
_C9: Value_for_2 >= 0
Bounds
Value_for_0 free
Value_for_1 free
Value_for_2 free
Value_for_3 free
End
